%%MatrixMarket matrix coordinate real general
% 2D Laplacian on 4x4 grid (5-point stencil)
% Grid node numbering (row-major):
%    0  1  2  3
%    4  5  6  7
%    8  9 10 11
%   12 13 14 15
16 16 64
1 1 4
1 2 -1
1 5 -1
2 1 -1
2 2 4
2 3 -1
2 6 -1
3 2 -1
3 3 4
3 4 -1
3 7 -1
4 3 -1
4 4 4
4 8 -1
5 1 -1
5 5 4
5 6 -1
5 9 -1
6 2 -1
6 5 -1
6 6 4
6 7 -1
6 10 -1
7 3 -1
7 6 -1
7 7 4
7 8 -1
7 11 -1
8 4 -1
8 7 -1
8 8 4
8 12 -1
9 5 -1
9 9 4
9 10 -1
9 13 -1
10 6 -1
10 9 -1
10 10 4
10 11 -1
10 14 -1
11 7 -1
11 10 -1
11 11 4
11 12 -1
11 15 -1
12 8 -1
12 11 -1
12 12 4
12 16 -1
13 9 -1
13 13 4
13 14 -1
14 10 -1
14 13 -1
14 14 4
14 15 -1
15 11 -1
15 14 -1
15 15 4
15 16 -1
16 12 -1
16 15 -1
16 16 4
